CST08
Position Depot: Center
Horizon for Depot: Small
Position of customers: Cluster
Distribution of the demand: Small
Width of time windows: Tight
Distribution of the service: Large

VEHICLE 
NUMBER 	 CAPACITY 
 6 	 	 109 
 
CUSTOMER
CUST NO. 	 XCOORD.  	 YCOORD. 	 DEMAND 	 READY TIME 	 DUE DATE 	 SERVICE TIME 
 0 	 	 500 	 	 500 	 	 0 	 	 0 	 	 1633 	 	 0 
  1 	 	 575 	 	 378 	 	 7 	 	 997 	 	 1140 	 	 104 
  2 	 	 532 	 	 547 	 	 9 	 	 863 	 	 1053 	 	 166 
  3 	 	 186 	 	 301 	 	 6 	 	 422 	 	 586 	 	 164 
  4 	 	 598 	 	 407 	 	 9 	 	 643 	 	 803 	 	 109 
  5 	 	 539 	 	 508 	 	 5 	 	 136 	 	 308 	 	 149 
  6 	 	 626 	 	 355 	 	 5 	 	 1347 	 	 1397 	 	 153 
  7 	 	 577 	 	 448 	 	 6 	 	 259 	 	 350 	 	 156 
  8 	 	 516 	 	 596 	 	 9 	 	 1161 	 	 1343 	 	 102 
  9 	 	 516 	 	 598 	 	 7 	 	 875 	 	 1017 	 	 199 
  10 	 	 561 	 	 616 	 	 7 	 	 513 	 	 671 	 	 124 
  11 	 	 600 	 	 400 	 	 5 	 	 22 	 	 155 	 	 133 
  12 	 	 553 	 	 392 	 	 10 	 	 147 	 	 207 	 	 158 
  13 	 	 613 	 	 403 	 	 7 	 	 271 	 	 352 	 	 178 
  14 	 	 590 	 	 505 	 	 7 	 	 405 	 	 471 	 	 112 
  15 	 	 518 	 	 588 	 	 6 	 	 936 	 	 1049 	 	 110 
  16 	 	 186 	 	 269 	 	 8 	 	 234 	 	 428 	 	 180 
  17 	 	 185 	 	 280 	 	 5 	 	 285 	 	 422 	 	 123 
  18 	 	 431 	 	 614 	 	 7 	 	 773 	 	 826 	 	 164 
  19 	 	 640 	 	 367 	 	 8 	 	 154 	 	 266 	 	 162 
  20 	 	 192 	 	 321 	 	 7 	 	 1374 	 	 1489 	 	 186 
  21 	 	 559 	 	 568 	 	 7 	 	 329 	 	 418 	 	 149 
  22 	 	 620 	 	 375 	 	 5 	 	 818 	 	 962 	 	 100 
  23 	 	 627 	 	 511 	 	 9 	 	 83 	 	 229 	 	 151 
  24 	 	 450 	 	 594 	 	 5 	 	 281 	 	 335 	 	 120 
  25 	 	 200 	 	 214 	 	 9 	 	 918 	 	 1111 	 	 193 
  26 	 	 550 	 	 348 	 	 9 	 	 1532 	 	 1613 	 	 170 
  27 	 	 615 	 	 443 	 	 6 	 	 1470 	 	 1615 	 	 102 
  28 	 	 372 	 	 262 	 	 8 	 	 955 	 	 1118 	 	 112 
  29 	 	 316 	 	 183 	 	 9 	 	 319 	 	 403 	 	 155 
  30 	 	 582 	 	 390 	 	 10 	 	 823 	 	 986 	 	 123 
  31 	 	 574 	 	 497 	 	 7 	 	 301 	 	 419 	 	 170 
  32 	 	 115 	 	 299 	 	 5 	 	 628 	 	 749 	 	 169 
  33 	 	 160 	 	 251 	 	 8 	 	 478 	 	 641 	 	 109 
  34 	 	 466 	 	 599 	 	 8 	 	 1201 	 	 1264 	 	 166 
  35 	 	 277 	 	 406 	 	 5 	 	 202 	 	 266 	 	 137 
  36 	 	 162 	 	 326 	 	 6 	 	 343 	 	 418 	 	 178 
  37 	 	 237 	 	 321 	 	 7 	 	 287 	 	 349 	 	 150 
  38 	 	 596 	 	 528 	 	 5 	 	 29 	 	 176 	 	 158 
  39 	 	 611 	 	 252 	 	 10 	 	 120 	 	 298 	 	 189 
  40 	 	 173 	 	 304 	 	 5 	 	 1474 	 	 1565 	 	 183 
  41 	 	 168 	 	 301 	 	 7 	 	 855 	 	 1019 	 	 136 
  42 	 	 322 	 	 561 	 	 8 	 	 1208 	 	 1355 	 	 145 
  43 	 	 284 	 	 440 	 	 6 	 	 1098 	 	 1152 	 	 159 
  44 	 	 738 	 	 602 	 	 9 	 	 946 	 	 1006 	 	 114 
  45 	 	 450 	 	 497 	 	 10 	 	 -72 	 	 107 	 	 123 
  46 	 	 426 	 	 469 	 	 5 	 	 490 	 	 690 	 	 145 
  47 	 	 568 	 	 581 	 	 5 	 	 591 	 	 709 	 	 171 
  48 	 	 535 	 	 608 	 	 10 	 	 271 	 	 330 	 	 154 
  49 	 	 176 	 	 233 	 	 5 	 	 384 	 	 461 	 	 158 
  50 	 	 510 	 	 528 	 	 10 	 	 977 	 	 1140 	 	 145 
  51 	 	 202 	 	 194 	 	 10 	 	 1430 	 	 1588 	 	 122 
  52 	 	 588 	 	 374 	 	 7 	 	 86 	 	 169 	 	 185 
  53 	 	 633 	 	 291 	 	 8 	 	 989 	 	 1071 	 	 194 
  54 	 	 184 	 	 299 	 	 7 	 	 959 	 	 1101 	 	 185 
  55 	 	 605 	 	 464 	 	 6 	 	 743 	 	 904 	 	 119 
  56 	 	 595 	 	 537 	 	 5 	 	 1344 	 	 1506 	 	 107 
  57 	 	 49 	 	 445 	 	 5 	 	 1095 	 	 1206 	 	 116 
  58 	 	 574 	 	 425 	 	 9 	 	 320 	 	 379 	 	 154 
  59 	 	 586 	 	 406 	 	 5 	 	 -50 	 	 140 	 	 128 
  60 	 	 200 	 	 303 	 	 5 	 	 1042 	 	 1112 	 	 138 
  61 	 	 610 	 	 306 	 	 8 	 	 188 	 	 335 	 	 168 
  62 	 	 510 	 	 515 	 	 9 	 	 1265 	 	 1332 	 	 153 
  63 	 	 537 	 	 537 	 	 6 	 	 978 	 	 1052 	 	 119 
  64 	 	 692 	 	 567 	 	 10 	 	 107 	 	 244 	 	 157 
  65 	 	 184 	 	 566 	 	 8 	 	 305 	 	 399 	 	 140 
  66 	 	 575 	 	 524 	 	 9 	 	 706 	 	 798 	 	 153 
  67 	 	 611 	 	 282 	 	 8 	 	 1459 	 	 1633 	 	 186 
  68 	 	 517 	 	 478 	 	 9 	 	 648 	 	 779 	 	 110 
  69 	 	 532 	 	 405 	 	 6 	 	 987 	 	 1136 	 	 167 
  70 	 	 210 	 	 296 	 	 7 	 	 319 	 	 390 	 	 103 
  71 	 	 616 	 	 330 	 	 10 	 	 615 	 	 807 	 	 177 
  72 	 	 560 	 	 609 	 	 5 	 	 338 	 	 517 	 	 168 
  73 	 	 718 	 	 474 	 	 5 	 	 339 	 	 444 	 	 109 
  74 	 	 562 	 	 356 	 	 7 	 	 723 	 	 774 	 	 198 
  75 	 	 466 	 	 464 	 	 9 	 	 1345 	 	 1497 	 	 151 
  76 	 	 643 	 	 363 	 	 7 	 	 430 	 	 493 	 	 128 
  77 	 	 179 	 	 330 	 	 6 	 	 1159 	 	 1212 	 	 135 
  78 	 	 620 	 	 394 	 	 10 	 	 1266 	 	 1443 	 	 120 
  79 	 	 449 	 	 353 	 	 5 	 	 261 	 	 344 	 	 130 
  80 	 	 667 	 	 247 	 	 7 	 	 504 	 	 567 	 	 110 
  81 	 	 655 	 	 390 	 	 5 	 	 484 	 	 587 	 	 106 
  82 	 	 607 	 	 330 	 	 5 	 	 1536 	 	 1633 	 	 152 
  83 	 	 221 	 	 271 	 	 9 	 	 1282 	 	 1350 	 	 190 
  84 	 	 701 	 	 401 	 	 9 	 	 501 	 	 626 	 	 105 
  85 	 	 552 	 	 394 	 	 7 	 	 1413 	 	 1545 	 	 141 
  86 	 	 646 	 	 416 	 	 6 	 	 404 	 	 549 	 	 164 
  87 	 	 228 	 	 214 	 	 8 	 	 1345 	 	 1521 	 	 165 
  88 	 	 208 	 	 307 	 	 9 	 	 326 	 	 385 	 	 122 
  89 	 	 622 	 	 664 	 	 7 	 	 628 	 	 808 	 	 104 
  90 	 	 74 	 	 362 	 	 6 	 	 947 	 	 1069 	 	 128 
  91 	 	 257 	 	 429 	 	 9 	 	 1023 	 	 1139 	 	 133 
  92 	 	 221 	 	 360 	 	 9 	 	 392 	 	 552 	 	 170 
  93 	 	 87 	 	 277 	 	 5 	 	 917 	 	 1090 	 	 167 
  94 	 	 303 	 	 294 	 	 7 	 	 1220 	 	 1309 	 	 189 
  95 	 	 531 	 	 442 	 	 5 	 	 1118 	 	 1253 	 	 167 
  96 	 	 416 	 	 537 	 	 9 	 	 311 	 	 441 	 	 160 
  97 	 	 16 	 	 374 	 	 7 	 	 363 	 	 550 	 	 186 
  98 	 	 218 	 	 233 	 	 7 	 	 1337 	 	 1500 	 	 142 
  99 	 	 583 	 	 349 	 	 9 	 	 1461 	 	 1633 	 	 154 
  100 	 	 565 	 	 676 	 	 7 	 	 751 	 	 928 	 	 169 
 